\ Model QuadraticProblem
\ LP format - for model browsing. Use MPS format to capture full model detail.
Minimize
  - 2 x - 6 y + [ x ^2 - 2 x * y + 2 y ^2 ] / 2 
Subject To
 c0: - x + 2 y <= 2
 c1: x + y <= 2
 c2: 2 x + y <= 3
Bounds
End
